100 10
363 614
143 474
497 532
484 632
593 450
696 870
364 278
397 371
709 568
692 439
649 242
286 595
530 585
678 702
235 285
852 856
516 852
519 729
433 841
523 872
574 717
758 674
471 545
687 826
686 558
374 701
739 614
474 675
840 663
999 637
675 393
176 754
667 601
384 368
226 528
600 518
920 672
694 317
496 713
608 596
496 342
581 572
396 424
834 411
507 579
160 139
454 112
500 300
577 336
613 693
387 551
295 99
583 293
524 860
293 857
349 54
366 224
286 465
463 904
754 457
785 418
332 558
665 402
734 339
413 290
798 430
588 559
433 619
693 330
404 62
597 575
524 134
370 496
330 47
722 568
581 316
567 326
242 583
834 632
847 704
504 531
612 616
495 399
438 552
501 751
194 580
412 656
399 341
169 620
430 41
399 536
233 296
489 706
678 444
662 604
491 363
610 654
378 339
492 672
475 498
